
******************************************************************************
This program contains Ipopt, a library for large-scale nonlinear optimization.
 Ipopt is released as open source code under the Eclipse Public License (EPL).
         For more information visit http://projects.coin-or.org/Ipopt

This version of Ipopt was compiled from source code available at
    https://github.com/IDAES/Ipopt as part of the Institute for the Design of
    Advanced Energy Systems Process Systems Engineering Framework (IDAES PSE
    Framework) Copyright (c) 2018-2019. See https://github.com/IDAES/idaes-pse.

This version of Ipopt was compiled using HSL, a collection of Fortran codes
    for large-scale scientific computation.  All technical papers, sales and
    publicity material resulting from use of the HSL codes within IPOPT must
    contain the following acknowledgement:
        HSL, a collection of Fortran codes for large-scale scientific
        computation. See http://www.hsl.rl.ac.uk.
******************************************************************************

This is Ipopt version 3.13.2, running with linear solver ma27.

Number of nonzeros in equality constraint Jacobian...:     1172
Number of nonzeros in inequality constraint Jacobian.:        0
Number of nonzeros in Lagrangian Hessian.............:     1333

Total number of variables............................:      465
                     variables with only lower bounds:      124
                variables with lower and upper bounds:      279
                     variables with only upper bounds:        0
Total number of equality constraints.................:      462
Total number of inequality constraints...............:        0
        inequality constraints with only lower bounds:        0
   inequality constraints with lower and upper bounds:        0
        inequality constraints with only upper bounds:        0

iter    objective    inf_pr   inf_du lg(mu)  ||d||  lg(rg) alpha_du alpha_pr  ls
   0  0.0000000e+00 2.10e+00 1.78e-15  -1.0 0.00e+00    -  0.00e+00 0.00e+00   0
   1  7.8144933e+00 1.90e+00 9.43e+05  -1.0 5.02e+06    -  2.04e-02 4.93e-02h  3
   2  2.6153455e+01 1.83e+00 1.22e+06  -1.0 6.04e+06    -  1.86e-02 2.96e-02h  3
   3  2.7866044e+01 1.82e+00 1.22e+06  -1.0 7.92e+06    -  1.86e-02 2.57e-03h  6
   4  3.2892078e+01 1.81e+00 1.22e+06  -1.0 9.25e+06    -  1.83e-02 6.00e-03h  5
   5  3.5978861e+01 1.80e+00 1.22e+06  -1.0 9.79e+06    -  2.28e-02 3.07e-03h  6
   6  3.6893457e+01 1.80e+00 1.22e+06  -1.0 1.05e+07    -  2.29e-02 8.32e-04h  8
   7  3.7914602e+01 1.80e+00 1.22e+06  -1.0 1.16e+07    -  2.56e-02 8.36e-04h  8
   8  2.8475623e+02 2.06e+00 7.98e+06  -1.0 1.25e+07    -  3.60e-02 8.46e-02h  1
   9  2.8884760e+02 2.06e+00 7.97e+06  -1.0 3.09e+07    -  3.57e-02 4.72e-04h  1
iter    objective    inf_pr   inf_du lg(mu)  ||d||  lg(rg) alpha_du alpha_pr  ls
  10  2.8919214e+02 2.06e+00 7.97e+06  -1.0 6.78e+07    -  2.25e-02 1.74e-05h  1
  11  4.5020323e+02 2.08e+00 9.33e+06  -1.0 1.00e+08    -  1.47e-02 4.48e-03h  5
  12  4.5352600e+02 2.08e+00 7.00e+07  -1.0 3.46e+07  -2.0 9.84e-02 4.35e-04h  1
  13  5.0495027e+02 2.09e+00 8.27e+08  -1.0 3.49e+07  -2.5 7.04e-02 6.29e-03h  4
  14  5.0713583e+02 2.09e+00 8.27e+08  -1.0 3.84e+07  -3.0 1.39e-01 3.06e-04h  8
  15  5.2532400e+02 2.08e+00 8.35e+08  -1.0 3.31e+07  -3.4 5.73e-02 5.78e-03h  3
  16  4.5861156e+02 2.08e+00 1.22e+09  -1.0 1.06e+08  -3.9 9.94e-02 2.19e-03f  3
  17  4.6245200e+02 2.07e+00 1.26e+09  -1.0 2.75e+07  -3.5 1.17e-01 4.35e-03h  3
  18  4.5709546e+02 2.07e+00 1.27e+09  -1.0 7.34e+07  -4.0 1.47e-01 3.89e-04f  6
  19  4.7347602e+02 2.07e+00 1.26e+09  -1.0 4.81e+07    -  4.37e-02 1.64e-03h  6
iter    objective    inf_pr   inf_du lg(mu)  ||d||  lg(rg) alpha_du alpha_pr  ls
  20  6.2489063e+02 2.08e+00 2.11e+09  -1.0 6.12e+07    -  4.99e-02 8.02e-03h  4
  21  6.4438945e+02 2.08e+00 2.12e+09  -1.0 6.83e+07    -  5.43e-02 1.06e-03h  7
  22  8.7186111e+02 2.10e+00 4.27e+09  -1.0 8.00e+07    -  6.85e-02 8.04e-03h  4
  23  4.7212982e+03 3.91e+00 2.25e+11  -1.0 9.98e+07    -  5.09e-02 5.98e-02w  1
  24  2.1281009e+03 4.72e+00 3.20e+11  -1.0 6.61e+08  -4.4 2.45e-02 3.80e-03w  1
  25  2.1281173e+03 4.72e+00 3.20e+11  -1.0 6.14e+07  -0.4 1.29e-02 1.76e-06w  1
  26  1.1664498e+03 2.11e+00 7.09e+09  -1.0 1.05e+08    -  5.09e-02 7.48e-03h  3
  27  1.9019595e+03 2.15e+00 1.97e+10  -1.0 1.23e+08    -  8.34e-02 1.26e-02h  3
  28  2.8566630e+03 2.17e+00 3.40e+10  -1.0 1.69e+08    -  4.05e-02 1.02e-02h  3
  29  3.9537344e+03 2.18e+00 4.67e+10  -1.0 2.16e+08    -  5.22e-01 8.06e-03h  3
MA27BD returned iflag=-4 and requires more memory.
 Increase liw from 18645 to 37290 and la from 21795 to 45450 and factorize again.
iter    objective    inf_pr   inf_du lg(mu)  ||d||  lg(rg) alpha_du alpha_pr  ls
  30  5.6745778e+03 2.19e+00 6.85e+10  -1.0 2.89e+08    -  3.05e-02 7.93e-03h  3
  31  6.5671283e+03 2.19e+00 7.24e+10  -1.0 3.62e+08    -  6.50e-01 3.06e-03h  4
  32  7.6850350e+03 2.19e+00 7.78e+10  -1.0 4.23e+08    -  2.92e-02 3.01e-03h  4
  33  8.8069464e+03 2.19e+00 8.17e+10  -1.0 4.67e+08    -  1.27e-01 2.59e-03h  4
  34  9.9999282e+03 2.18e+00 8.50e+10  -1.0 5.22e+08    -  3.53e-02 2.32e-03h  4
  35  1.1178078e+04 2.18e+00 8.67e+10  -1.0 5.67e+08    -  3.56e-01 2.01e-03h  4
  36  2.3550856e+04 3.79e+00 4.45e+10  -1.0 6.28e+08    -  2.81e-02 1.45e-02w  1
  37  1.6863852e+04 3.66e+00 1.15e+11  -1.0 2.59e+09    -  7.12e-02 1.53e-03w  1
  38  2.3045701e+04 7.79e+00 2.33e+12  -1.0 6.03e+09    -  3.76e-03 6.54e-04w  1
  39  1.2420354e+04 2.18e+00 8.75e+10  -1.0 1.82e+09    -  2.81e-02 1.82e-03h  3
iter    objective    inf_pr   inf_du lg(mu)  ||d||  lg(rg) alpha_du alpha_pr  ls
  40  1.3456318e+04 2.18e+00 8.51e+10  -1.0 6.25e+08    -  6.61e-01 1.49e-03h  4
  41  1.4317264e+04 2.18e+00 8.00e+10  -1.0 6.03e+08    -  3.20e-02 1.28e-03h  4
  42  1.4553968e+04 2.17e+00 7.81e+10  -1.0 4.49e+08    -  5.48e-01 5.17e-04h  5
  43  1.4735750e+04 2.17e+00 7.60e+10  -1.0 3.87e+08    -  5.44e-02 4.85e-04h  5
  44  1.4924846e+04 2.17e+00 7.36e+10  -1.0 3.96e+08    -  2.05e-01 4.79e-04h  5
  45  1.5130883e+04 2.17e+00 7.09e+10  -1.0 4.17e+08    -  6.11e-02 4.77e-04h  5
  46  1.5246596e+04 2.17e+00 6.79e+10  -1.0 2.95e+08    -  9.61e-01 4.41e-04h  5
  47  1.5280470e+04 2.17e+00 6.48e+10  -1.0 2.97e+08    -  1.19e-01 4.13e-04h  5
  48  1.5259432e+04 2.17e+00 6.16e+10  -1.0 3.08e+08    -  9.60e-01 3.96e-04f  5
  49  1.4428325e+04 3.22e+00 7.70e+11  -1.0 3.14e+08    -  9.65e-02 6.14e-03w  1
iter    objective    inf_pr   inf_du lg(mu)  ||d||  lg(rg) alpha_du alpha_pr  ls
  50  1.3711036e+04 3.20e+00 8.03e+11  -1.0 7.62e+08    -  9.20e-01 6.85e-04w  1
  51  4.1314513e+04 2.33e+02 1.53e+18  -1.0 1.04e+10    -  1.93e-03 1.48e-03w  1
Scaling factors are invalid - setting them all to 1.
Scaling factors are invalid - setting them all to 1.
Scaling factors are invalid - setting them all to 1.
Scaling factors are invalid - setting them all to 1.
Scaling factors are invalid - setting them all to 1.
Scaling factors are invalid - setting them all to 1.
Scaling factors are invalid - setting them all to 1.
Scaling factors are invalid - setting them all to 1.
Scaling factors are invalid - setting them all to 1.
Scaling factors are invalid - setting them all to 1.
Scaling factors are invalid - setting them all to 1.
Scaling factors are invalid - setting them all to 1.
Scaling factors are invalid - setting them all to 1.
Scaling factors are invalid - setting them all to 1.
Scaling factors are invalid - setting them all to 1.
WARNING: Problem in step computation; switching to emergency mode.
Scaling factors are invalid - setting them all to 1.
Scaling factors are invalid - setting them all to 1.
Scaling factors are invalid - setting them all to 1.
Scaling factors are invalid - setting them all to 1.
Scaling factors are invalid - setting them all to 1.
Scaling factors are invalid - setting them all to 1.
Scaling factors are invalid - setting them all to 1.
Scaling factors are invalid - setting them all to 1.
Scaling factors are invalid - setting them all to 1.
Scaling factors are invalid - setting them all to 1.
Scaling factors are invalid - setting them all to 1.
Scaling factors are invalid - setting them all to 1.
Scaling factors are invalid - setting them all to 1.
Scaling factors are invalid - setting them all to 1.
  52  1.5129526e+04 2.17e+00 4.83e+10  -1.0 1.04e+10  20.0 9.65e-02 7.67e-04f  4
  53  1.4920082e+04 2.17e+00 4.53e+10  -1.0 3.38e+08    -  5.75e-01 3.51e-04f  5
  54  1.4424258e+04 2.16e+00 3.95e+10  -1.0 4.38e+08    -  9.95e-02 6.90e-04f  4
  55  1.4097827e+04 2.16e+00 4.07e+10  -1.0 6.43e+08    -  9.30e-01 3.36e-04f  5
  56  9.1662414e+03 2.91e+00 3.43e+11  -1.0 7.01e+08    -  8.27e-02 5.39e-03f  1
  57  9.4424712e+03 2.90e+00 3.59e+11  -1.0 4.55e+08    -  3.45e-02 5.84e-04h  1
  58  1.1737267e+04 2.90e+00 9.99e+10  -1.0 5.25e+09    -  5.05e-04 3.82e-04h  6
  59  1.2763034e+04 2.90e+00 4.90e+10  -1.0 1.43e+10    -  2.05e-04 5.82e-05h  7
iter    objective    inf_pr   inf_du lg(mu)  ||d||  lg(rg) alpha_du alpha_pr  ls
  60  1.2696743e+04 2.90e+00 3.91e+10  -1.0 9.35e+10    -  2.12e-04 5.63e-07f  3
  61r 1.2696743e+04 2.90e+00 1.00e+03   0.5 0.00e+00    -  0.00e+00 4.42e-07R  5
  62r 1.2696745e+04 2.39e+00 9.97e+02   0.5 1.07e+04    -  7.62e-03 2.04e-03f  1
  63r 1.2696745e+04 2.39e+00 9.99e+02   0.4 0.00e+00    -  0.00e+00 1.05e-07R  2
  64r 1.2696747e+04 2.32e+00 9.94e+02   0.4 9.74e+02    -  1.83e-02 5.20e-03f  1
  65r 1.2696751e+04 2.27e+00 9.77e+02   0.4 3.56e+02    -  1.36e-02 1.65e-02f  1
  66r 1.2696752e+04 2.21e+00 9.73e+02   0.4 9.31e+02    -  3.79e-04 1.13e-02f  1
  67r 1.2696750e+04 1.82e+00 9.45e+02   0.4 1.37e+03    -  4.65e-02 2.33e-02f  1
  68  1.2690369e+04 9.76e+00 9.08e+12  -1.0 5.45e+07    -  5.08e-03 9.02e-05f  1
WARNING: Problem in step computation; switching to emergency mode.
  69r 1.2690369e+04 9.76e+00 9.99e+02   1.0 0.00e+00  20.0 0.00e+00 0.00e+00R  1
iter    objective    inf_pr   inf_du lg(mu)  ||d||  lg(rg) alpha_du alpha_pr  ls
  70r 1.2690369e+04 9.76e+00 1.26e+03   1.0 9.76e+03    -  2.95e-02 9.90e-04f  1
  71r 1.2690369e+04 1.88e+01 3.15e+07   1.0 2.56e+02    -  1.04e-01 3.06e-02f  1
  72r 1.2690369e+04 9.57e+00 6.94e+13   1.0 8.88e-01   5.5 1.32e-02 1.14e-02h  1
  73r 1.2690369e+04 9.57e+00 8.88e+16   1.0 9.03e-03  10.9 9.90e-01 8.22e-03h  1
  74r 1.2690369e+04 1.29e+00 1.45e+08   1.0 1.73e-04  14.5 9.90e-01 1.27e-01H  1
  75r 1.2690369e+04 1.29e+00 9.99e+02   0.1 0.00e+00    -  0.00e+00 3.98e-09R  2
  76r 1.2690368e+04 3.27e+02 1.85e+03   0.1 4.68e+02    -  2.17e-02 7.47e-03f  1
  77r 1.2690368e+04 9.56e+00 2.11e+11   0.1 6.94e+02    -  2.04e-03 2.60e-03f  1
WARNING: Problem in step computation; switching to emergency mode.
  78r 1.2690368e+04 9.56e+00 2.11e+11   0.1 6.94e+02  19.8 0.00e+00 0.00e+00R  1
WARNING: Problem in step computation; switching to emergency mode.
Restoration phase is called at point that is almost feasible,
  with constraint violation 0.000000e+00. Abort.
Restoration phase in the restoration phase failed.

Number of Iterations....: 78

                                   (scaled)                 (unscaled)
Objective...............:   1.2690367832746957e+04    1.2690367832746957e+04
Dual infeasibility......:   2.1136113679305145e+11    2.1136113679305145e+11
Constraint violation....:   9.5564213147878068e+00    9.5564213147878068e+00
Complementarity.........:   9.7633356984311152e+08    9.7633356984311152e+08
Overall NLP error.......:   2.1136113679305145e+11    2.1136113679305145e+11


Number of objective function evaluations             = 314
Number of objective gradient evaluations             = 69
Number of equality constraint evaluations            = 315
Number of inequality constraint evaluations          = 0
Number of equality constraint Jacobian evaluations   = 83
Number of inequality constraint Jacobian evaluations = 0
Number of Lagrangian Hessian evaluations             = 79
Total CPU secs in IPOPT (w/o function evaluations)   =      0.458
Total CPU secs in NLP function evaluations           =      3.211

EXIT: Restoration Failed!
